BREAK NO.(ORIGINAL),BREAK NO.(NEW),FROM TIME,TO TIME,SPOT ID(CUST NO.),SERVICE TIME
b01,b10001,2000/1/1 10:00:00,2000/1/1 12:00:00,256,15
b01,b10002,2000/1/1 10:00:00,2000/1/1 12:00:00,255,30
b11,b20001,2000/1/1 10:00:00,2000/1/1 12:00:00,255,30
b12,b20002,2000/1/1 14:00:00,2000/1/1 16:00:00,255,30
b32,b30001,2000/1/1 14:00:00,2000/1/1 16:00:00,,30
